n = 21;
k = 3;
roles = [
{g, f},
{d, f},
{g, m},
{m, d},
{f, g},
{g, f},
{g, f},
{m, g},
{f, d},
{d, f},
{m, d},
{d, m},
{m, g},
{m, f},
{d, f},
{m, g},
{g, d},
{f, d},
{d, f},
{d, g},
{f, m}
];
num_pairs = 1;
player1 = [9];
player2 = [4];
